;; produced by cvc4_16.drv ;;
(set-logic AUFBVFPDTNIRA)
(set-info :smt-lib-version 2.6)
;;; generated by SMT-LIB2 driver
;;; SMT-LIB2 driver: bit-vectors, common part
;;; SMT-LIB2: integer arithmetic
(declare-sort string 0)

(declare-datatypes ((tuple0 0))
(((Tuple0))))
(declare-sort us_private 0)

(declare-fun private__bool_eq (us_private us_private) Bool)

(declare-const us_null_ext__ us_private)

(declare-sort us_type_of_heap 0)

(declare-datatypes ((us_type_of_heap__ref 0))
(((us_type_of_heap__refqtmk (us_type_of_heap__content us_type_of_heap)))))
(declare-sort us_image 0)

(declare-datatypes ((int__ref 0))
(((int__refqtmk (int__content Int)))))
(declare-datatypes ((bool__ref 0))
(((bool__refqtmk (bool__content Bool)))))
(declare-datatypes ((us_fixed__ref 0))
(((us_fixed__refqtmk (us_fixed__content Int)))))
(declare-datatypes ((real__ref 0))
(((real__refqtmk (real__content Real)))))
(declare-datatypes ((us_private__ref 0))
(((us_private__refqtmk (us_private__content us_private)))))
(define-fun int__ref___projection ((a int__ref)) Int (int__content a))

(define-fun us_fixed__ref___projection ((a us_fixed__ref)) Int (us_fixed__content
                                                               a))

(define-fun bool__ref___projection ((a bool__ref)) Bool (bool__content a))

(define-fun real__ref___projection ((a real__ref)) Real (real__content a))

(define-fun us_private__ref___projection ((a us_private__ref)) us_private 
  (us_private__content a))

(define-fun length ((x Int) (y Int)) Int (ite (<= x y) (+ (- y x) 1) 0))

(define-fun abs1 ((x Int)) Int (ite (<= 0 x) x (- x)))

;; Abs_le
  (assert
  (forall ((x Int) (y Int)) (= (<= (abs1 x) y) (and (<= (- y) x) (<= x y)))))

;; Abs_pos
  (assert (forall ((x Int)) (<= 0 (abs1 x))))

(declare-fun div1 (Int Int) Int)

(declare-fun mod1 (Int Int) Int)

;; Div_mod
  (assert
  (forall ((x Int) (y Int))
  (=> (not (= y 0)) (= x (+ (* y (div1 x y)) (mod1 x y))))))

;; Div_bound
  (assert
  (forall ((x Int) (y Int))
  (=> (and (<= 0 x) (< 0 y)) (and (<= 0 (div1 x y)) (<= (div1 x y) x)))))

;; Mod_bound
  (assert
  (forall ((x Int) (y Int))
  (=> (not (= y 0))
  (and (< (- (abs1 y)) (mod1 x y)) (< (mod1 x y) (abs1 y))))))

;; Div_sign_pos
  (assert
  (forall ((x Int) (y Int)) (=> (and (<= 0 x) (< 0 y)) (<= 0 (div1 x y)))))

;; Div_sign_neg
  (assert
  (forall ((x Int) (y Int)) (=> (and (<= x 0) (< 0 y)) (<= (div1 x y) 0))))

;; Mod_sign_pos
  (assert
  (forall ((x Int) (y Int))
  (=> (and (<= 0 x) (not (= y 0))) (<= 0 (mod1 x y)))))

;; Mod_sign_neg
  (assert
  (forall ((x Int) (y Int))
  (=> (and (<= x 0) (not (= y 0))) (<= (mod1 x y) 0))))

;; Rounds_toward_zero
  (assert
  (forall ((x Int) (y Int))
  (=> (not (= y 0)) (<= (abs1 (* (div1 x y) y)) (abs1 x)))))

;; Div_1
  (assert (forall ((x Int)) (= (div1 x 1) x)))

;; Mod_1
  (assert (forall ((x Int)) (= (mod1 x 1) 0)))

;; Div_inf
  (assert
  (forall ((x Int) (y Int)) (=> (and (<= 0 x) (< x y)) (= (div1 x y) 0))))

;; Mod_inf
  (assert
  (forall ((x Int) (y Int)) (=> (and (<= 0 x) (< x y)) (= (mod1 x y) x))))

;; Div_mult
  (assert
  (forall ((x Int) (y Int) (z Int))
  (! (=> (and (< 0 x) (and (<= 0 y) (<= 0 z)))
     (= (div1 (+ (* x y) z) x) (+ y (div1 z x)))) :pattern ((div1
                                                            (+ (* x y) z) x)) )))

;; Mod_mult
  (assert
  (forall ((x Int) (y Int) (z Int))
  (! (=> (and (< 0 x) (and (<= 0 y) (<= 0 z)))
     (= (mod1 (+ (* x y) z) x) (mod1 z x))) :pattern ((mod1 (+ (* x y) z) x)) )))

;; Div_unique
  (assert
  (forall ((x Int) (y Int) (q Int))
  (=> (< 0 y) (=> (and (<= (* q y) x) (< x (+ (* q y) y))) (= (div x y) q)))))

;; Div_bound
  (assert
  (forall ((x Int) (y Int))
  (=> (and (<= 0 x) (< 0 y)) (and (<= 0 (div x y)) (<= (div x y) x)))))

;; Div_inf
  (assert
  (forall ((x Int) (y Int)) (=> (and (<= 0 x) (< x y)) (= (div x y) 0))))

;; Div_inf_neg
  (assert
  (forall ((x Int) (y Int))
  (=> (and (< 0 x) (<= x y)) (= (div (- x) y) (- 1)))))

;; Mod_0
  (assert (forall ((y Int)) (=> (not (= y 0)) (= (mod 0 y) 0))))

;; Div_1_left
  (assert (forall ((y Int)) (=> (< 1 y) (= (div 1 y) 0))))

;; Div_minus1_left
  (assert (forall ((y Int)) (=> (< 1 y) (= (div (- 1) y) (- 1)))))

;; Mod_1_left
  (assert (forall ((y Int)) (=> (< 1 y) (= (mod 1 y) 1))))

;; Mod_minus1_left
  (assert
  (forall ((y Int))
  (! (=> (< 1 y) (= (mod (- 1) y) (- y 1))) :pattern ((mod (- 1) y)) )))

;; Div_mult
  (assert
  (forall ((x Int) (y Int) (z Int))
  (! (=> (< 0 x) (= (div (+ (* x y) z) x) (+ y (div z x)))) :pattern ((div (+ (* x y) z) x)) )))

;; Mod_mult
  (assert
  (forall ((x Int) (y Int) (z Int))
  (! (=> (< 0 x) (= (mod (+ (* x y) z) x) (mod z x))) :pattern ((mod (+ (* x y) z) x)) )))

(define-fun mod2 ((x Int)
  (y Int)) Int (ite (< 0 y) (mod x y) (+ (mod x y) y)))

(declare-fun nth ((_ BitVec 8) Int) Bool)

(declare-fun lsr ((_ BitVec 8) Int) (_ BitVec 8))

(declare-fun asr ((_ BitVec 8) Int) (_ BitVec 8))

(declare-fun lsl ((_ BitVec 8) Int) (_ BitVec 8))

(declare-fun rotate_right1 ((_ BitVec 8) Int) (_ BitVec 8))

(declare-fun rotate_left1 ((_ BitVec 8) Int) (_ BitVec 8))

(declare-fun pow2 (Int) Int)

(define-fun to_int1 ((x (_ BitVec 8))) Int (ite (bvsge x (_ bv0 8))
                                           (bv2nat x) (- (- 256 (bv2nat x)))))

(define-fun uint_in_range ((i Int)) Bool (and (<= 0 i) (<= i 255)))

;; lsr_bv_is_lsr
  (assert
  (forall ((x (_ BitVec 8)) (n (_ BitVec 8)))
  (= (bvlshr x n) (lsr x (bv2nat n)))))

;; asr_bv_is_asr
  (assert
  (forall ((x (_ BitVec 8)) (n (_ BitVec 8)))
  (= (bvashr x n) (asr x (bv2nat n)))))

;; lsl_bv_is_lsl
  (assert
  (forall ((x (_ BitVec 8)) (n (_ BitVec 8)))
  (= (bvshl x n) (lsl x (bv2nat n)))))

;; rotate_left_bv_is_rotate_left
  (assert
  (forall ((v (_ BitVec 8)) (n (_ BitVec 8)))
  (= (bvor (bvshl v (bvurem n (_ bv8 8))) (bvlshr v (bvsub (_ bv8 8) (bvurem n (_ bv8 8))))) 
  (rotate_left1 v (bv2nat n)))))

;; rotate_right_bv_is_rotate_right
  (assert
  (forall ((v (_ BitVec 8)) (n (_ BitVec 8)))
  (= (bvor (bvlshr v (bvurem n (_ bv8 8))) (bvshl v (bvsub (_ bv8 8) (bvurem n (_ bv8 8))))) 
  (rotate_right1 v (bv2nat n)))))

(declare-fun nth_bv ((_ BitVec 8) (_ BitVec 8)) Bool)

;; nth_bv_def
  (assert
  (forall ((x (_ BitVec 8)) (i (_ BitVec 8)))
  (= (= (nth_bv x i) true) (not (= (bvand (bvlshr x i) #x01) #x00)))))

;; Nth_bv_is_nth
  (assert
  (forall ((x (_ BitVec 8)) (i (_ BitVec 8)))
  (= (nth x (bv2nat i)) (nth_bv x i))))

;; Nth_bv_is_nth2
  (assert
  (forall ((x (_ BitVec 8)) (i Int))
  (=> (and (<= 0 i) (< i 256)) (= (nth_bv x ((_ int2bv 8) i)) (nth x i)))))

(declare-fun eq_sub_bv ((_ BitVec 8) (_ BitVec 8) (_ BitVec 8)
  (_ BitVec 8)) Bool)

;; eq_sub_bv_def
  (assert
  (forall ((a (_ BitVec 8)) (b (_ BitVec 8)) (i (_ BitVec 8))
  (n (_ BitVec 8)))
  (let ((mask (bvshl (bvsub (bvshl #x01 n) #x01) i)))
  (= (eq_sub_bv a b i n) (= (bvand b mask) (bvand a mask))))))

(define-fun eq_sub ((a (_ BitVec 8)) (b (_ BitVec 8)) (i Int)
  (n Int)) Bool (forall ((j Int))
                (=> (and (<= i j) (< j (+ i n))) (= (nth a j) (nth b j)))))

;; eq_sub_equiv
  (assert
  (forall ((a (_ BitVec 8)) (b (_ BitVec 8)) (i (_ BitVec 8))
  (n (_ BitVec 8)))
  (= (eq_sub a b (bv2nat i) (bv2nat n)) (eq_sub_bv a b i n))))

(declare-datatypes ((t__ref 0))
(((t__refqtmk (t__content (_ BitVec 8))))))
(declare-fun power ((_ BitVec 8) Int) (_ BitVec 8))

(define-fun bv_min ((x (_ BitVec 8))
  (y (_ BitVec 8))) (_ BitVec 8) (ite (bvule x y) x y))

(define-fun bv_max ((x (_ BitVec 8))
  (y (_ BitVec 8))) (_ BitVec 8) (ite (bvule x y) y x))

(define-fun min ((x Int) (y Int)) Int (ite (<= x y) x y))

(define-fun max ((x Int) (y Int)) Int (ite (<= x y) y x))

;; Min_r
  (assert (forall ((x Int) (y Int)) (=> (<= y x) (= (min x y) y))))

;; Max_l
  (assert (forall ((x Int) (y Int)) (=> (<= y x) (= (max x y) x))))

;; Min_comm
  (assert (forall ((x Int) (y Int)) (= (min x y) (min y x))))

;; Max_comm
  (assert (forall ((x Int) (y Int)) (= (max x y) (max y x))))

;; Min_assoc
  (assert
  (forall ((x Int) (y Int) (z Int)) (= (min (min x y) z) (min x (min y z)))))

;; Max_assoc
  (assert
  (forall ((x Int) (y Int) (z Int)) (= (max (max x y) z) (max x (max y z)))))

(define-fun in_range ((x Int)) Bool (or (= x 0) (= x 1)))

(declare-fun attr__ATTRIBUTE_IMAGE (Bool) us_image)

(declare-fun attr__ATTRIBUTE_VALUE__pre_check (us_image) Bool)

(declare-fun attr__ATTRIBUTE_VALUE (us_image) Bool)

(declare-sort integer 0)

(declare-fun integerqtint (integer) Int)

;; integer'axiom
  (assert
  (forall ((i integer))
  (and (<= (- 2147483648) (integerqtint i)) (<= (integerqtint i) 2147483647))))

(define-fun in_range1 ((x Int)) Bool (and (<= (- 2147483648) x)
                                     (<= x 2147483647)))

(declare-fun attr__ATTRIBUTE_IMAGE1 (Int) us_image)

(declare-fun attr__ATTRIBUTE_VALUE__pre_check1 (us_image) Bool)

(declare-fun attr__ATTRIBUTE_VALUE1 (us_image) Int)

(declare-fun user_eq (integer integer) Bool)

(declare-const dummy integer)

(declare-datatypes ((integer__ref 0))
(((integer__refqtmk (integer__content integer)))))
(define-fun integer__ref_integer__content__projection ((a integer__ref)) integer 
  (integer__content a))

(declare-sort positive 0)

(declare-fun positiveqtint (positive) Int)

;; positive'axiom
  (assert
  (forall ((i positive))
  (and (<= 1 (positiveqtint i)) (<= (positiveqtint i) 2147483647))))

(define-fun in_range2 ((x Int)) Bool (and (<= 1 x) (<= x 2147483647)))

(declare-fun attr__ATTRIBUTE_IMAGE2 (Int) us_image)

(declare-fun attr__ATTRIBUTE_VALUE__pre_check2 (us_image) Bool)

(declare-fun attr__ATTRIBUTE_VALUE2 (us_image) Int)

(declare-fun user_eq1 (positive positive) Bool)

(declare-const dummy1 positive)

(declare-datatypes ((positive__ref 0))
(((positive__refqtmk (positive__content positive)))))
(define-fun positive__ref_positive__content__projection ((a positive__ref)) positive 
  (positive__content a))

(declare-sort character 0)

(define-fun in_range3 ((x Int)) Bool (and (<= 0 x) (<= x 255)))

(declare-fun attr__ATTRIBUTE_IMAGE3 (Int) us_image)

(declare-fun attr__ATTRIBUTE_VALUE__pre_check3 (us_image) Bool)

(declare-fun attr__ATTRIBUTE_VALUE3 (us_image) Int)

(declare-fun user_eq2 (character character) Bool)

(declare-const dummy2 character)

(declare-datatypes ((character__ref 0))
(((character__refqtmk (character__content character)))))
(define-fun character__ref_character__content__projection ((a character__ref)) character 
  (character__content a))

(declare-fun to_rep (character) Int)

(declare-fun of_rep (Int) character)

;; inversion_axiom
  (assert
  (forall ((x character))
  (! (= (of_rep (to_rep x)) x) :pattern ((to_rep x)) )))

;; range_axiom
  (assert
  (forall ((x character)) (! (in_range3 (to_rep x)) :pattern ((to_rep x)) )))

;; coerce_axiom
  (assert
  (forall ((x Int))
  (! (=> (in_range3 x) (= (to_rep (of_rep x)) x)) :pattern ((to_rep
                                                            (of_rep x))) )))

(declare-datatypes ((map__ref 0))
(((map__refqtmk (map__content (Array Int character))))))
(declare-fun slide ((Array Int character) Int Int) (Array Int character))

;; slide_eq
  (assert
  (forall ((a (Array Int character)))
  (forall ((first Int))
  (! (= (slide a first first) a) :pattern ((slide a first first)) ))))

;; slide_def
  (assert
  (forall ((a (Array Int character)))
  (forall ((old_first Int))
  (forall ((new_first Int))
  (forall ((i Int))
  (! (= (select (slide a old_first new_first) i) (select a (- i (- new_first old_first)))) :pattern ((select 
  (slide a old_first new_first) i)) ))))))

(define-fun bool_eq ((a (Array Int character)) (a__first Int) (a__last Int)
  (b (Array Int character)) (b__first Int)
  (b__last Int)) Bool (ite (and
                           (ite (<= a__first a__last)
                           (and (<= b__first b__last)
                           (= (- a__last a__first) (- b__last b__first)))
                           (< b__last b__first))
                           (forall ((temp___idx_91 Int))
                           (=>
                           (and (<= a__first temp___idx_91)
                           (<= temp___idx_91 a__last))
                           (= (to_rep (select a temp___idx_91)) (to_rep
                                                                (select b (+ (- b__first a__first) temp___idx_91)))))))
                      true false))

;; bool_eq_rev
  (assert
  (forall ((a (Array Int character)) (b (Array Int character)))
  (forall ((a__first Int) (a__last Int) (b__first Int) (b__last Int))
  (=> (= (bool_eq b b__first b__last a a__first a__last) true)
  (and
  (ite (<= a__first a__last)
  (and (<= b__first b__last) (= (- a__last a__first) (- b__last b__first)))
  (< b__last b__first))
  (forall ((temp___idx_91 Int))
  (=> (and (<= a__first temp___idx_91) (<= temp___idx_91 a__last))
  (= (to_rep (select a temp___idx_91)) (to_rep
                                       (select b (+ (- b__first a__first) temp___idx_91)))))))))))

(define-fun to_rep1 ((x integer)) Int (integerqtint x))

(declare-fun of_rep1 (Int) integer)

;; inversion_axiom
  (assert
  (forall ((x integer))
  (! (= (of_rep1 (to_rep1 x)) x) :pattern ((to_rep1 x)) )))

;; range_axiom
  (assert
  (forall ((x integer)) (! (in_range1 (to_rep1 x)) :pattern ((to_rep1 x)) )))

;; coerce_axiom
  (assert
  (forall ((x Int))
  (! (=> (in_range1 x) (= (to_rep1 (of_rep1 x)) x)) :pattern ((to_rep1
                                                              (of_rep1 x))) )))

(declare-sort t 0)

(declare-fun first (t) integer)

(declare-fun last (t) integer)

(declare-fun mk (Int Int) t)

;; mk_def
  (assert
  (forall ((f Int) (l Int))
  (! (=> (in_range1 f)
     (=> (in_range1 l)
     (and (= (to_rep1 (first (mk f l))) f) (= (to_rep1 (last (mk f l))) l)))) :pattern (
  (mk f l)) )))

(define-fun dynamic_property ((range_first Int) (range_last Int) (low Int)
  (high Int)) Bool (and (in_range1 low)
                   (and (in_range1 high)
                   (=> (<= low high) (and (in_range2 low) (in_range2 high))))))

(declare-datatypes ((us_t 0))
(((us_tqtmk (elts (Array Int character))(rt t)))))
(define-fun to_array ((a us_t)) (Array Int character) (elts a))

(define-fun of_array ((a (Array Int character)) (f Int)
  (l Int)) us_t (us_tqtmk a (mk f l)))

(define-fun first1 ((a us_t)) Int (to_rep1 (first (rt a))))

(define-fun last1 ((a us_t)) Int (to_rep1 (last (rt a))))

(define-fun length1 ((a us_t)) Int (ite (<= (first1 a) (last1 a))
                                   (+ (- (last1 a) (first1 a)) 1) 0))

(declare-const value__size Int)

(declare-const object__size Int)

(declare-const component__size Int)

(declare-const alignment Int)

;; value__size_axiom
  (assert (<= 0 value__size))

;; object__size_axiom
  (assert (<= 0 object__size))

;; component__size_axiom
  (assert (<= 0 component__size))

;; alignment_axiom
  (assert (<= 0 alignment))

(define-fun bool_eq1 ((x us_t)
  (y us_t)) Bool (bool_eq (elts x) (to_rep1 (first (rt x)))
                 (to_rep1 (last (rt x))) (elts y) (to_rep1 (first (rt y)))
                 (to_rep1 (last (rt y)))))

(declare-fun user_eq3 (us_t us_t) Bool)

(declare-const dummy3 us_t)

(declare-datatypes ((string____ref 0))
(((string____refqtmk (string____content us_t)))))
(define-fun string____ref_string____content__projection ((a string____ref)) us_t 
  (string____content a))

(declare-fun length_with_padding (Int) Int)

(declare-fun length_with_padding__function_guard (Int Int) Bool)

(declare-sort octet_array_count 0)

(declare-fun octet_array_countqtint (octet_array_count) Int)

;; octet_array_count'axiom
  (assert
  (forall ((i octet_array_count))
  (and (<= 0 (octet_array_countqtint i))
  (<= (octet_array_countqtint i) 65536))))

(define-fun in_range4 ((x Int)) Bool (and (<= 0 x) (<= x 65536)))

(declare-fun attr__ATTRIBUTE_IMAGE4 (Int) us_image)

(declare-fun attr__ATTRIBUTE_VALUE__pre_check4 (us_image) Bool)

(declare-fun attr__ATTRIBUTE_VALUE4 (us_image) Int)

(declare-fun user_eq4 (octet_array_count octet_array_count) Bool)

(declare-const dummy4 octet_array_count)

(declare-datatypes ((octet_array_count__ref 0))
(((octet_array_count__refqtmk (octet_array_count__content octet_array_count)))))
(define-fun octet_array_count__ref_octet_array_count__content__projection ((a octet_array_count__ref)) octet_array_count 
  (octet_array_count__content a))

(define-fun dynamic_invariant ((temp___expr_220 Int)
  (temp___is_init_216 Bool) (temp___skip_constant_217 Bool)
  (temp___do_toplevel_218 Bool)
  (temp___do_typ_inv_219 Bool)) Bool (=>
                                     (or (= temp___is_init_216 true)
                                     (<= 0 65536)) (in_range4
                                     temp___expr_220)))

;; length_with_padding__post_axiom
  (assert
  (forall ((length2 Int))
  (! (=> (dynamic_invariant length2 true true true true)
     (let ((result (length_with_padding length2)))
     (=> (length_with_padding__function_guard result length2)
     (dynamic_invariant result true false true true)))) :pattern ((length_with_padding
                                                                  length2)) )))

;; length_with_padding__def_axiom
  (assert
  (forall ((length2 Int))
  (! (=> (dynamic_invariant length2 true true true true)
     (= (length_with_padding length2) (+ length2 (ite (= (mod1 length2 4) 0)
                                                 0 (- 4 (mod1 length2 4)))))) :pattern (
  (length_with_padding length2)) )))

(declare-sort octet 0)

(declare-const attr__ATTRIBUTE_MODULUS (_ BitVec 8))

(declare-fun attr__ATTRIBUTE_IMAGE5 ((_ BitVec 8)) us_image)

(declare-fun attr__ATTRIBUTE_VALUE__pre_check5 (us_image) Bool)

(declare-fun attr__ATTRIBUTE_VALUE5 (us_image) (_ BitVec 8))

(declare-fun user_eq5 (octet octet) Bool)

(declare-const dummy5 octet)

(declare-datatypes ((octet__ref 0))
(((octet__refqtmk (octet__content octet)))))
(define-fun octet__ref_octet__content__projection ((a octet__ref)) octet 
  (octet__content a))

(declare-sort octet_array_index 0)

(declare-fun octet_array_indexqtint (octet_array_index) Int)

;; octet_array_index'axiom
  (assert
  (forall ((i octet_array_index))
  (and (<= 0 (octet_array_indexqtint i))
  (<= (octet_array_indexqtint i) 65535))))

(define-fun in_range5 ((x Int)) Bool (and (<= 0 x) (<= x 65535)))

(declare-fun attr__ATTRIBUTE_IMAGE6 (Int) us_image)

(declare-fun attr__ATTRIBUTE_VALUE__pre_check6 (us_image) Bool)

(declare-fun attr__ATTRIBUTE_VALUE6 (us_image) Int)

(declare-fun user_eq6 (octet_array_index octet_array_index) Bool)

(declare-const dummy6 octet_array_index)

(declare-datatypes ((octet_array_index__ref 0))
(((octet_array_index__refqtmk (octet_array_index__content octet_array_index)))))
(define-fun octet_array_index__ref_octet_array_index__content__projection ((a octet_array_index__ref)) octet_array_index 
  (octet_array_index__content a))

(declare-fun to_rep2 (octet) (_ BitVec 8))

(declare-fun of_rep2 ((_ BitVec 8)) octet)

;; inversion_axiom
  (assert
  (forall ((x octet))
  (! (= (of_rep2 (to_rep2 x)) x) :pattern ((to_rep2 x)) )))

;; range_axiom
  (assert true)

;; coerce_axiom
  (assert
  (forall ((x (_ BitVec 8)))
  (! (= (to_rep2 (of_rep2 x)) x) :pattern ((to_rep2 (of_rep2 x))) )))

(define-fun to_int2 ((x octet)) Int (bv2nat (to_rep2 x)))

;; range_int_axiom
  (assert
  (forall ((x octet)) (! (uint_in_range
  (to_int2 x)) :pattern ((to_int2 x)) )))

(declare-datatypes ((map__ref1 0))
(((map__refqtmk1 (map__content1 (Array Int octet))))))
(declare-fun slide1 ((Array Int octet) Int Int) (Array Int octet))

;; slide_eq
  (assert
  (forall ((a (Array Int octet)))
  (forall ((first2 Int))
  (! (= (slide1 a first2 first2) a) :pattern ((slide1 a first2 first2)) ))))

;; slide_def
  (assert
  (forall ((a (Array Int octet)))
  (forall ((old_first Int))
  (forall ((new_first Int))
  (forall ((i Int))
  (! (= (select (slide1 a old_first new_first) i) (select a (- i (- new_first old_first)))) :pattern ((select 
  (slide1 a old_first new_first) i)) ))))))

(define-fun bool_eq2 ((a (Array Int octet)) (a__first Int) (a__last Int)
  (b (Array Int octet)) (b__first Int)
  (b__last Int)) Bool (ite (and
                           (ite (<= a__first a__last)
                           (and (<= b__first b__last)
                           (= (- a__last a__first) (- b__last b__first)))
                           (< b__last b__first))
                           (forall ((temp___idx_154 Int))
                           (=>
                           (and (<= a__first temp___idx_154)
                           (<= temp___idx_154 a__last))
                           (= (to_rep2 (select a temp___idx_154)) (to_rep2
                                                                  (select b (+ (- b__first a__first) temp___idx_154)))))))
                      true false))

;; bool_eq_rev
  (assert
  (forall ((a (Array Int octet)) (b (Array Int octet)))
  (forall ((a__first Int) (a__last Int) (b__first Int) (b__last Int))
  (=> (= (bool_eq2 b b__first b__last a a__first a__last) true)
  (and
  (ite (<= a__first a__last)
  (and (<= b__first b__last) (= (- a__last a__first) (- b__last b__first)))
  (< b__last b__first))
  (forall ((temp___idx_154 Int))
  (=> (and (<= a__first temp___idx_154) (<= temp___idx_154 a__last))
  (= (to_rep2 (select a temp___idx_154)) (to_rep2
                                         (select b (+ (- b__first a__first) temp___idx_154)))))))))))

(declare-sort t1 0)

(declare-fun first2 (t1) integer)

(declare-fun last2 (t1) integer)

(declare-fun mk1 (Int Int) t1)

;; mk_def
  (assert
  (forall ((f Int) (l Int))
  (! (=> (in_range1 f)
     (=> (in_range1 l)
     (and (= (to_rep1 (first2 (mk1 f l))) f)
     (= (to_rep1 (last2 (mk1 f l))) l)))) :pattern ((mk1 f l)) )))

(define-fun dynamic_property1 ((range_first Int) (range_last Int) (low Int)
  (high Int)) Bool (and (in_range1 low)
                   (and (in_range1 high)
                   (=> (<= low high) (and (in_range5 low) (in_range5 high))))))

(declare-datatypes ((us_t1 0))
(((us_tqtmk1 (elts1 (Array Int octet))(rt1 t1)))))
(define-fun to_array1 ((a us_t1)) (Array Int octet) (elts1 a))

(define-fun of_array1 ((a (Array Int octet)) (f Int)
  (l Int)) us_t1 (us_tqtmk1 a (mk1 f l)))

(define-fun first3 ((a us_t1)) Int (to_rep1 (first2 (rt1 a))))

(define-fun last3 ((a us_t1)) Int (to_rep1 (last2 (rt1 a))))

(define-fun length2 ((a us_t1)) Int (ite (<= (first3 a) (last3 a))
                                    (+ (- (last3 a) (first3 a)) 1) 0))

(declare-const value__size1 Int)

(declare-const object__size1 Int)

(declare-const component__size1 Int)

(declare-const alignment1 Int)

;; value__size_axiom
  (assert (<= 0 value__size1))

;; object__size_axiom
  (assert (<= 0 object__size1))

;; component__size_axiom
  (assert (<= 0 component__size1))

;; alignment_axiom
  (assert (<= 0 alignment1))

(define-fun bool_eq3 ((x us_t1)
  (y us_t1)) Bool (bool_eq2 (elts1 x) (to_rep1 (first2 (rt1 x)))
                  (to_rep1 (last2 (rt1 x))) (elts1 y)
                  (to_rep1 (first2 (rt1 y))) (to_rep1 (last2 (rt1 y)))))

(declare-fun user_eq7 (us_t1 us_t1) Bool)

(declare-const dummy7 us_t1)

(declare-datatypes ((octet_array__ref 0))
(((octet_array__refqtmk (octet_array__content us_t1)))))
(define-fun octet_array__ref_octet_array__content__projection ((a octet_array__ref)) us_t1 
  (octet_array__content a))

(declare-const data us_t1)

(declare-const attr__ATTRIBUTE_ADDRESS Int)

(declare-const position Int)

(declare-const attr__ATTRIBUTE_ADDRESS1 Int)

(declare-const value__first integer)

(declare-const value__last integer)

(declare-const attr__ATTRIBUTE_ADDRESS2 Int)

(declare-const attr__ATTRIBUTE_ADDRESS3 Int)

(declare-const attr__ATTRIBUTE_ADDRESS4 Int)

(define-fun dynamic_invariant1 ((temp___expr_206 Int)
  (temp___is_init_202 Bool) (temp___skip_constant_203 Bool)
  (temp___do_toplevel_204 Bool)
  (temp___do_typ_inv_205 Bool)) Bool (=>
                                     (or (= temp___is_init_202 true)
                                     (<= 0 65535)) (in_range5
                                     temp___expr_206)))

(declare-sort octet_array_extended_index 0)

(declare-fun octet_array_extended_indexqtint (octet_array_extended_index) Int)

;; octet_array_extended_index'axiom
  (assert
  (forall ((i octet_array_extended_index))
  (and (<= (- 1) (octet_array_extended_indexqtint i))
  (<= (octet_array_extended_indexqtint i) 65535))))

(define-fun in_range6 ((x Int)) Bool (and (<= (- 1) x) (<= x 65535)))

(declare-fun attr__ATTRIBUTE_IMAGE7 (Int) us_image)

(declare-fun attr__ATTRIBUTE_VALUE__pre_check7 (us_image) Bool)

(declare-fun attr__ATTRIBUTE_VALUE7 (us_image) Int)

(declare-fun user_eq8 (octet_array_extended_index
  octet_array_extended_index) Bool)

(declare-const dummy8 octet_array_extended_index)

(declare-datatypes ((octet_array_extended_index__ref 0))
(((octet_array_extended_index__refqtmk
  (octet_array_extended_index__content octet_array_extended_index)))))
(define-fun octet_array_extended_index__ref_octet_array_extended_index__content__projection ((a octet_array_extended_index__ref)) octet_array_extended_index 
  (octet_array_extended_index__content a))

(define-fun dynamic_invariant2 ((temp___expr_213 Int)
  (temp___is_init_209 Bool) (temp___skip_constant_210 Bool)
  (temp___do_toplevel_211 Bool)
  (temp___do_typ_inv_212 Bool)) Bool (=>
                                     (or (= temp___is_init_209 true)
                                     (<= (- 1) 65535)) (in_range6
                                     temp___expr_213)))

(define-fun dynamic_invariant3 ((temp___expr_227 us_t1)
  (temp___is_init_223 Bool) (temp___skip_constant_224 Bool)
  (temp___do_toplevel_225 Bool)
  (temp___do_typ_inv_226 Bool)) Bool (=>
                                     (not (= temp___skip_constant_224 true))
                                     (dynamic_property1 0 65535
                                     (first3 temp___expr_227)
                                     (last3 temp___expr_227))))

(declare-datatypes ((t37b__ref 0))
(((t37b__refqtmk (t37b__content us_t)))))
(define-fun t37b__ref_t37b__content__projection ((a t37b__ref)) us_t 
  (t37b__content a))

(declare-fun temp_____aggregate_def_620 (Int Int Int) us_t)

(define-fun dynamic_invariant4 ((temp___expr_46 Int) (temp___is_init_42 Bool)
  (temp___skip_constant_43 Bool) (temp___do_toplevel_44 Bool)
  (temp___do_typ_inv_45 Bool)) Bool (=>
                                    (or (= temp___is_init_42 true)
                                    (<= 1 2147483647)) (in_range2
                                    temp___expr_46)))

(define-fun dynamic_invariant5 ((temp___expr_74 Int) (temp___is_init_70 Bool)
  (temp___skip_constant_71 Bool) (temp___do_toplevel_72 Bool)
  (temp___do_typ_inv_73 Bool)) Bool (=>
                                    (or (= temp___is_init_70 true)
                                    (<= 0 255)) (in_range3 temp___expr_74)))

(define-fun dynamic_invariant6 ((temp___expr_96 us_t)
  (temp___is_init_92 Bool) (temp___skip_constant_93 Bool)
  (temp___do_toplevel_94 Bool)
  (temp___do_typ_inv_95 Bool)) Bool (=>
                                    (not (= temp___skip_constant_93 true))
                                    (dynamic_property 1 2147483647
                                    (first1 temp___expr_96)
                                    (last1 temp___expr_96))))

(define-fun dynamic_invariant7 ((temp___expr_18 Int) (temp___is_init_14 Bool)
  (temp___skip_constant_15 Bool) (temp___do_toplevel_16 Bool)
  (temp___do_typ_inv_17 Bool)) Bool (=>
                                    (or (= temp___is_init_14 true)
                                    (<= (- 2147483648) 2147483647))
                                    (in_range1 temp___expr_18)))

;; def_axiom
  (assert
  (forall ((temp___622 Int) (temp___623 Int) (temp___624 Int))
  (let ((temp___621 (temp_____aggregate_def_620 temp___622 temp___623
                    temp___624)))
  (=> (dynamic_invariant5 temp___622 true true true true)
  (and
  (=> (dynamic_property 1 2147483647 temp___623 temp___624)
  (and (= (first1 temp___621) temp___623) (= (last1 temp___621) temp___624)))
  (forall ((temp___625 Int))
  (= (to_rep (select (to_array temp___621) temp___625)) temp___622)))))))

(define-fun dynamic_invariant8 ((temp___expr_199 (_ BitVec 8))
  (temp___is_init_195 Bool) (temp___skip_constant_196 Bool)
  (temp___do_toplevel_197 Bool) (temp___do_typ_inv_198 Bool)) Bool true)

(assert
;; defqtvc
 ;; File "cubedos-lib-xdr.ads", line 274, characters 0-0
  (not
  (forall ((last4 Int) (o Int) (o1 Int))
  (=> (dynamic_invariant3 data true false true true)
  (=> (dynamic_invariant1 position true false true true)
  (=> (dynamic_property 1 2147483647 (to_rep1 value__first)
  (to_rep1 value__last))
  (=> (dynamic_invariant2 last4 false false true true)
  (=> (= (mod1 position 4) 0)
  (=> (< 0 (length2 data))
  (=> (= (mod1 (length2 data) 4) 0)
  (=> (<= (length (to_rep1 value__first) (to_rep1 value__last)) 65536)
  (=> (<= (first3 data) position)
  (=> (<= position (last3 data))
  (=> (length_with_padding__function_guard
  (length_with_padding (length (to_rep1 value__first) (to_rep1 value__last)))
  (length (to_rep1 value__first) (to_rep1 value__last)))
  (=>
  (<= position (- (last3 data) (- (length_with_padding
                                  (length (to_rep1 value__first)
                                  (to_rep1 value__last))) 1)))
  (=> (= (to_rep1 value__last) o)
  (=> (= (to_rep1 value__first) o1)
  (let ((temp___626 (temp_____aggregate_def_620 32 o1 o)))
  (=> (= (first1 temp___626) (to_rep1 value__first))
  (=> (= (last1 temp___626) (to_rep1 value__last))
  (let ((temp___628 (of_array (to_array temp___626) (first1 temp___626)
                    (last1 temp___626))))
  (=> (<= (first1 temp___628) (last1 temp___628))
  (<= (to_rep1 value__first) (to_rep1 value__last))))))))))))))))))))))))
(check-sat)
